(set-info :origin "SVCOMP13 benchmarks generated by Arie Gurfinkel")
(set-logic HORN)
(declare-fun cp-rel-entry () Bool)
(declare-fun cp-rel-bb.i
             (Real Real Real Real Real Real Real Real Real Real Real Real)
             Bool)
(declare-fun cp-rel-UnifiedReturnBlock () Bool)
(declare-fun cp-rel-bb.i103.i
             (Real
              Real
              Real
              Real
              Real
              Real
              Real
              Real
              Real
              Real
              Real
              Real
              Real
              Bool
              Real
              Real
              Real
              Real
              Real
              Real
              Real
              Real
              Real
              Real
              Real)
             Bool)
(declare-fun cp-rel-bb.i103.i.outer46
             (Real Real Real Real Real Real Real Real Real Real Real Real)
             Bool)
(declare-fun cp-rel-__UFO__0
             (Real
              Real
              Real
              Real
              Real
              Real
              Real
              Real
              Real
              Real
              Real
              Real
              Real
              Real
              Real
              Real
              Real
              Real
              Real
              Real
              Real
              Real
              Real
              Real
              Bool
              Real
              Real
              Real
              Real
              Real
              Real
              Real
              Real
              Real
              Real
              Real
              Bool
              Bool
              Bool
              Bool)
             Bool)
(assert |cp-rel-entry|)
(assert (forall ((?A Real) (?B Real) (?C Real) (?D Real) (?E Real) (?F Real) (?G Real) (?H Real) (?I Real) (?J Real) (?K Real) (?L Real) (?M Bool) )(let (($x827269 (|cp-rel-bb.i| ?A ?B ?C ?D ?E ?F ?G ?H ?I ?J ?K ?L)))
(let (($x441497 (= ?M true)))
(let (($x587238 (and |cp-rel-entry| (<= ?L 0.0) (>= ?K 0.0) (<= ?K 0.0) (>= ?J 0.0) (<= ?J 0.0) (>= ?I 0.0) (<= ?I 0.0) (>= ?H 0.0) (<= ?H 0.0) (>= ?G 0.0) (<= ?G 0.0) (>= ?F 0.0) (<= ?F 0.0) (>= ?E 0.0) (<= ?E 0.0) (>= ?D 0.0) (<= ?D 0.0) (>= ?C 0.0) (<= ?C 0.0) (>= ?B 0.0) (<= ?B 0.0) (>= ?A 0.0) (<= ?A 0.0) $x441497 (>= ?L 0.0))))
(=> $x587238 $x827269)))))
)
(assert (forall ((?A Real) (?B Real) (?C Real) (?D Real) (?E Real) (?F Real) (?G Real) (?H Real) (?I Real) (?J Real) (?K Real) (?L Real) (?M Real) (?N Real) (?O Real) (?P Real) (?Q Real) (?R Real) (?S Real) (?T Real) (?U Real) (?V Real) (?W Real) (?X Real) (?Y Real) (?Z Bool) (?A1 Real) (?B1 Real) (?C1 Real) (?D1 Real) (?E1 Real) (?F1 Real) (?G1 Real) (?H1 Real) (?I1 Real) (?J1 Real) (?K1 Real) (?L1 Bool) (?M1 Bool) (?N1 Bool) (?O1 Bool) (?P1 Bool) (?Q1 Bool) (?R1 Bool) (?S1 Bool) (?T1 Bool) (?U1 Bool) (?V1 Bool) (?W1 Bool) (?X1 Bool) (?Y1 Bool) (?Z1 Bool) (?A2 Bool) (?B2 Bool) (?C2 Bool) (?D2 Bool) (?E2 Bool) (?F2 Bool) (?G2 Bool) (?H2 Bool) (?I2 Bool) (?J2 Bool) (?K2 Bool) )(let (($x468302 (|cp-rel-bb.i| ?A ?B ?C ?D ?E ?F ?G ?H ?I ?J ?K ?L)))
(let (($x206493 (|cp-rel-bb.i103.i| ?M ?N ?O ?P ?Q ?R ?S ?T ?U ?V ?W ?X ?Y ?Z ?A1 ?B1 ?C1 ?D1 ?E1 ?F1 ?G1 ?H1 ?I1 ?J1 ?K1)))
(let (($x925134 (and $x206493 (= ?K2 (or ?J2 ?B2)) (= ?J2 (or ?I2 ?A2)) (= ?I2 ?Z1) (= ?U1 ?H2) (= ?H2 (or ?G2 ?Z1)) (= ?G2 (or ?F2 ?A2)) (= ?F2 (or ?B2 ?C2)) (= ?R1 (or ?E2 ?C2)) (= ?E2 (or ?D2 ?B2)) (= ?D2 (or ?A2 ?Z1)) (= ?C2 (= ?G1 0.0)) (= ?B2 (= ?F1 0.0)) (= ?A2 (= ?E1 0.0)) (= ?Z1 (= ?D1 0.0)) (= ?O1 (= ?C1 0.0)) (>= ?L ?K1) (<= ?L ?K1) (>= ?K ?J1) (<= ?K ?J1) (>= ?J ?I1) (<= ?J ?I1) (>= ?I ?H1) (<= ?I ?H1) (>= ?H ?Y) (<= ?H ?Y) (>= ?G ?G1) (<= ?G ?G1) (>= ?F ?F1) (<= ?F ?F1) (>= ?E ?E1) (<= ?E ?E1) (>= ?D ?D1) (<= ?D ?D1) (>= ?C ?C1) (<= ?C ?C1) (>= ?B ?B1) (<= ?B ?B1) (>= ?A ?A1) (<= ?A ?A1) (= ?Y1 true) (= ?V1 true) (or (not ?V1) (and ?W1 (not ?X1)) (and ?X1 (not ?W1))) (or (not ?V1) (and ?S1 ?W1) (and ?P1 ?X1 ?U1)) (or (not ?S1) ?T1) (or (not ?S1) (and ?P1 ?T1 (not ?U1))) (or (not ?P1) ?Q1) (or (not ?P1) (and ?L1 ?Q1 (not ?R1))) (or (not ?L1) ?N1) (or (not ?L1) (and ?M1 ?N1 (not ?O1))) (= ?Y1 (or ?K2 ?C2)))))
(=> $x925134 $x468302)))))
)
(assert (forall ((?A Real) (?B Real) (?C Real) (?D Real) (?E Real) (?F Real) (?G Real) (?H Real) (?I Real) (?J Real) (?K Real) (?L Real) (?M Real) (?N Real) (?O Real) (?P Real) (?Q Real) (?R Real) (?S Real) (?T Real) (?U Real) (?V Real) (?W Real) (?X Real) (?Y Bool) )(let (($x343373 (|cp-rel-bb.i103.i.outer46| ?M ?N ?O ?P ?Q ?R ?S ?T ?U ?V ?W ?X)))
(let (($x441497 (= ?Y true)))
(let (($x332926 (|cp-rel-bb.i| ?A ?B ?C ?D ?E ?F ?G ?H ?I ?J ?K ?L)))
(let (($x584581 (and $x332926 (<= ?X ?L) (>= ?W ?K) (<= ?W ?K) (>= ?V ?J) (<= ?V ?J) (>= ?U ?I) (<= ?U ?I) (>= ?T ?H) (<= ?T ?H) (>= ?S ?G) (<= ?S ?G) (>= ?R ?F) (<= ?R ?F) (>= ?Q ?E) (<= ?Q ?E) (>= ?P ?D) (<= ?P ?D) (>= ?O ?C) (<= ?O ?C) (>= ?N ?B) (<= ?N ?B) (>= ?M ?A) (<= ?M ?A) $x441497 (>= ?X ?L))))
(=> $x584581 $x343373))))))
)
(assert (forall ((?A Real) (?B Real) (?C Real) (?D Real) (?E Real) (?F Real) (?G Real) (?H Real) (?I Real) (?J Real) (?K Real) (?L Real) (?M Real) (?N Bool) (?O Real) (?P Real) (?Q Real) (?R Real) (?S Real) (?T Real) (?U Real) (?V Real) (?W Real) (?X Real) (?Y Real) (?Z Bool) (?A1 Bool) (?B1 Bool) (?C1 Bool) (?D1 Bool) (?E1 Bool) (?F1 Bool) (?G1 Bool) (?H1 Bool) (?I1 Bool) (?J1 Bool) (?K1 Real) (?L1 Real) (?M1 Real) (?N1 Real) (?O1 Real) (?P1 Real) (?Q1 Real) (?R1 Real) (?S1 Real) (?T1 Real) (?U1 Real) (?V1 Real) (?W1 Bool) (?X1 Bool) (?Y1 Bool) (?Z1 Bool) (?A2 Bool) (?B2 Bool) (?C2 Bool) (?D2 Bool) (?E2 Bool) (?F2 Bool) (?G2 Bool) (?H2 Bool) (?I2 Bool) (?J2 Bool) (?K2 Real) (?L2 Real) (?M2 Real) (?N2 Real) (?O2 Real) (?P2 Real) (?Q2 Real) (?R2 Bool) (?S2 Bool) (?T2 Bool) (?U2 Bool) (?V2 Bool) (?W2 Bool) (?X2 Bool) (?Y2 Bool) (?Z2 Bool) (?A3 Bool) (?B3 Bool) (?C3 Bool) (?D3 Bool) (?E3 Real) (?F3 Real) (?G3 Real) (?H3 Real) (?I3 Real) (?J3 Real) (?K3 Bool) (?L3 Bool) (?M3 Bool) (?N3 Bool) (?O3 Bool) (?P3 Bool) (?Q3 Bool) (?R3 Bool) (?S3 Bool) (?T3 Bool) (?U3 Bool) (?V3 Bool) (?W3 Bool) (?X3 Bool) (?Y3 Real) (?Z3 Real) (?A4 Real) (?B4 Real) (?C4 Real) (?D4 Real) (?E4 Bool) (?F4 Bool) (?G4 Bool) (?H4 Bool) (?I4 Bool) (?J4 Bool) (?K4 Bool) (?L4 Bool) (?M4 Bool) (?N4 Bool) (?O4 Bool) (?P4 Bool) (?Q4 Bool) (?R4 Bool) (?S4 Real) (?T4 Real) (?U4 Real) (?V4 Real) (?W4 Real) (?X4 Real) (?Y4 Bool) (?Z4 Bool) (?A5 Bool) (?B5 Bool) (?C5 Bool) (?D5 Bool) (?E5 Bool) (?F5 Bool) (?G5 Bool) (?H5 Bool) (?I5 Bool) (?J5 Real) (?K5 Real) (?L5 Real) (?M5 Real) (?N5 Bool) (?O5 Bool) (?P5 Real) (?Q5 Bool) (?R5 Real) (?S5 Bool) (?T5 Real) (?U5 Bool) (?V5 Real) (?W5 Real) (?X5 Bool) )(let (($x571951 (|cp-rel-bb.i103.i.outer46| ?K1 ?L1 ?M1 ?N1 ?O1 ?P1 ?Q1 ?R1 ?S1 ?T1 ?U1 ?V1)))
(let (($x578415 (not ?E2)))
(let (($x852120 (and ?Z ?S2 ?D1 (<= ?K2 ?O) (>= ?K2 ?O) (<= ?M2 ?P) (>= ?M2 ?P) (<= ?N2 ?Q) (>= ?N2 ?Q) (<= ?O2 ?R) (>= ?O2 ?R) (<= ?Q2 ?Y) (>= ?Q2 ?Y))))
(let (($x859666 (and ?W1 ?R2 ?A2 (<= ?K2 ?O) (>= ?K2 ?O) (<= ?M2 ?P) (>= ?M2 ?P) (<= ?N2 ?Q) (>= ?N2 ?Q) (<= ?O2 ?R) (>= ?O2 ?R) (<= ?Q2 ?Y) (>= ?Q2 ?Y))))
(let (($x290207 (and ?E2 ?J2 (<= ?K2 ?L2) (>= ?K2 ?L2) (<= ?M2 ?L2) (>= ?M2 ?L2) (<= ?N2 2.0) (>= ?N2 2.0) (<= ?O2 ?P2) (>= ?O2 ?P2) (<= ?Q2 1.0) (>= ?Q2 1.0))))
(let (($x425857 (or (not ?I2) (and ?J2 (not ?R2) (not ?S2)) (and ?R2 (not ?J2) (not ?S2)) (and ?S2 (not ?J2) (not ?R2)))))
(let (($x251508 (>= ?H3 ?S)))
(let (($x241428 (<= ?H3 ?S)))
(let (($x402333 (>= ?E3 ?K2)))
(let (($x632274 (<= ?E3 ?K2)))
(let (($x692444 (not ?V2)))
(let (($x220361 (and ?I2 ?M3 $x692444 $x632274 $x402333 (<= ?G3 ?O2) (>= ?G3 ?O2) $x241428 $x251508 (<= ?J3 ?X) (>= ?J3 ?X))))
(let (($x259428 (and ?T2 ?L3 ?Y2 $x632274 $x402333 (<= ?G3 ?O2) (>= ?G3 ?O2) $x241428 $x251508 (<= ?J3 ?X) (>= ?J3 ?X))))
(let (($x844983 (and ?W2 ?K3 (not ?B3) $x632274 $x402333 (<= ?G3 2.0) (>= ?G3 2.0) $x241428 $x251508 (<= ?J3 1.0) (>= ?J3 1.0))))
(let (($x886495 (and ?Z2 ?D3 (<= ?E3 ?F3) (>= ?E3 ?F3) (<= ?G3 2.0) (>= ?G3 2.0) (<= ?H3 ?I3) (>= ?H3 ?I3) (<= ?J3 1.0) (>= ?J3 1.0))))
(let (($x308320 (or (not ?C3) (and ?D3 (not ?K3) (not ?L3) (not ?M3)) (and ?K3 (not ?D3) (not ?L3) (not ?M3)) (and ?L3 (not ?D3) (not ?K3) (not ?M3)) (and ?M3 (not ?D3) (not ?K3) (not ?L3)))))
(let (($x144544 (>= ?B4 ?T)))
(let (($x550616 (<= ?B4 ?T)))
(let (($x372385 (>= ?Y3 ?E3)))
(let (($x739647 (<= ?Y3 ?E3)))
(let (($x191290 (not ?P3)))
(let (($x349630 (and ?C3 ?G4 $x191290 $x739647 $x372385 (<= ?A4 ?H3) (>= ?A4 ?H3) $x550616 $x144544 (<= ?D4 ?W) (>= ?D4 ?W))))
(let (($x554374 (and ?N3 ?F4 ?S3 $x739647 $x372385 (<= ?A4 ?H3) (>= ?A4 ?H3) $x550616 $x144544 (<= ?D4 ?W) (>= ?D4 ?W))))
(let (($x848943 (and ?Q3 ?E4 (not ?V3) $x739647 $x372385 (<= ?A4 2.0) (>= ?A4 2.0) $x550616 $x144544 (<= ?D4 1.0) (>= ?D4 1.0))))
(let (($x364919 (and ?T3 ?X3 (<= ?Y3 ?Z3) (>= ?Y3 ?Z3) (<= ?A4 2.0) (>= ?A4 2.0) (<= ?B4 ?C4) (>= ?B4 ?C4) (<= ?D4 1.0) (>= ?D4 1.0))))
(let (($x621787 (or (not ?W3) (and ?X3 (not ?E4) (not ?F4) (not ?G4)) (and ?E4 (not ?X3) (not ?F4) (not ?G4)) (and ?F4 (not ?X3) (not ?E4) (not ?G4)) (and ?G4 (not ?X3) (not ?E4) (not ?F4)))))
(let (($x927355 (>= ?V4 ?U)))
(let (($x860642 (<= ?V4 ?U)))
(let (($x131844 (>= ?S4 ?Y3)))
(let (($x510565 (<= ?S4 ?Y3)))
(let (($x466421 (not ?J4)))
(let (($x13829 (and ?W3 ?A5 $x466421 $x510565 $x131844 (<= ?U4 ?B4) (>= ?U4 ?B4) $x860642 $x927355 (<= ?X4 ?V) (>= ?X4 ?V))))
(let (($x919724 (and ?H4 ?Z4 ?M4 $x510565 $x131844 (<= ?U4 ?B4) (>= ?U4 ?B4) $x860642 $x927355 (<= ?X4 ?V) (>= ?X4 ?V))))
(let (($x866380 (and ?K4 ?Y4 (not ?P4) $x510565 $x131844 (<= ?U4 2.0) (>= ?U4 2.0) $x860642 $x927355 (<= ?X4 1.0) (>= ?X4 1.0))))
(let (($x102937 (and ?N4 ?R4 (<= ?S4 ?T4) (>= ?S4 ?T4) (<= ?U4 2.0) (>= ?U4 2.0) (<= ?V4 ?W4) (>= ?V4 ?W4) (<= ?X4 1.0) (>= ?X4 1.0))))
(let (($x395618 (not ?Q4)))
(let (($x846775 (or $x395618 (and ?R4 (not ?Y4) (not ?Z4) (not ?A5)) (and ?Y4 (not ?R4) (not ?Z4) (not ?A5)) (and ?Z4 (not ?R4) (not ?Y4) (not ?A5)) (and ?A5 (not ?R4) (not ?Y4) (not ?Z4)))))
(let (($x690004 (and ?E5 (not ?N) (<= ?K1 ?S4) (>= ?K1 ?S4) (<= ?L1 ?M2) (>= ?L1 ?M2) (<= ?M1 ?N2) (>= ?M1 ?N2) (<= ?N1 ?G3) (>= ?N1 ?G3) (<= ?O1 ?A4) (>= ?O1 ?A4) (<= ?P1 ?U4) (>= ?P1 ?U4) (<= ?Q1 2.0) (>= ?Q1 2.0) (<= ?R1 1.0) (>= ?R1 1.0) (<= ?S1 ?X4) (>= ?S1 ?X4) (<= ?T1 ?D4) (>= ?T1 ?D4) (<= ?U1 ?J3) (>= ?U1 ?J3) (<= ?V1 ?Q2) (>= ?V1 ?Q2))))
(let (($x253648 (and ?H5 (<= ?K1 ?J5) (>= ?K1 ?J5) (<= ?L1 ?M2) (>= ?L1 ?M2) (<= ?M1 ?K5) (>= ?M1 ?K5) (<= ?N1 ?G3) (>= ?N1 ?G3) (<= ?O1 ?A4) (>= ?O1 ?A4) (<= ?P1 ?U4) (>= ?P1 ?U4) (<= ?Q1 2.0) (>= ?Q1 2.0) (<= ?R1 1.0) (>= ?R1 1.0) (<= ?S1 ?X4) (>= ?S1 ?X4) (<= ?T1 ?D4) (>= ?T1 ?D4) (<= ?U1 ?J3) (>= ?U1 ?J3) (<= ?V1 ?Q2) (>= ?V1 ?Q2))))
(let (($x563753 (|cp-rel-bb.i103.i| ?A ?B ?C ?D ?E ?F ?G ?H ?I ?J ?K ?L ?M ?N ?O ?P ?Q ?R ?S ?T ?U ?V ?W ?X ?Y)))
(let (($x870589 (and $x563753 (= ?X5 (= ?Q2 1.0)) (= ?J5 (+ 1.0 ?S4)) (= ?G5 (= ?W5 0.0)) (= ?D5 (= ?V4 0.0)) (= ?W4 (ite ?N 0.0 ?U)) (= ?T4 (+ 1.0 ?Y3)) (= ?P4 (= ?V 1.0)) (= ?M4 (= ?V5 0.0)) (= ?J4 (= ?B4 0.0)) (= ?C4 (ite ?U5 0.0 ?T)) (= ?U5 (= ?V 1.0)) (= ?Z3 (+ 1.0 ?E3)) (= ?V3 (= ?W 1.0)) (= ?S3 (= ?T5 0.0)) (= ?P3 (= ?H3 0.0)) (= ?I3 (ite ?S5 0.0 ?S)) (= ?S5 (= ?W 1.0)) (= ?F3 (+ 1.0 ?K2)) (= ?B3 (= ?X 1.0)) (= ?Y2 (= ?R5 0.0)) (= ?V2 (= ?O2 0.0)) (= ?P2 (ite ?Q5 0.0 ?R)) (= ?Q5 (= ?X 1.0)) (= ?G2 (or ?O5 ?N5)) (= ?O5 (= ?P5 5.0)) (= ?N5 (not (= ?M5 ?O))) (= ?M5 (+ 4.0 ?P)) (= ?D2 (= ?Y 1.0)) (= ?D1 (or ?J1 ?H1)) (= ?J1 (or ?I1 ?G1)) (= ?I1 (or ?F1 ?E1)) (= ?H1 (= ?U 0.0)) (= ?G1 (= ?T 0.0)) (= ?F1 (= ?S 0.0)) (= ?E1 (= ?R 0.0)) (= ?A2 (= ?L5 0.0)) (= ?C1 (= ?Q 0.0)) (or $x253648 $x690004) (or (not ?H5) ?I5) (or (not ?H5) (and ?E5 ?I5 ?N)) (or (not ?E5) ?F5) (or (not ?E5) (and ?B5 ?F5 (not ?G5))) (or (not ?B5) ?C5) (or (not ?B5) (and ?Q4 ?C5 ?D5)) $x846775 (or $x395618 $x102937 $x866380 $x919724 $x13829) (or (not ?N4) ?O4) (or (not ?N4) (and ?K4 ?O4 ?P4)) (or (not ?K4) ?L4) (or (not ?K4) (and ?H4 ?L4 (not ?M4))) (or (not ?H4) ?I4) (or (not ?H4) (and ?W3 ?I4 ?J4)) $x621787 (or (not ?W3) $x364919 $x848943 $x554374 $x349630) (or (not ?T3) ?U3) (or (not ?T3) (and ?Q3 ?U3 ?V3)) (or (not ?Q3) ?R3) (or (not ?Q3) (and ?N3 ?R3 (not ?S3))) (or (not ?N3) ?O3) (or (not ?N3) (and ?C3 ?O3 ?P3)) $x308320 (or (not ?C3) $x886495 $x844983 $x259428 $x220361) (or (not ?Z2) ?A3) (or (not ?Z2) (and ?W2 ?A3 ?B3)) (or (not ?W2) ?X2) (or (not ?W2) (and ?T2 ?X2 (not ?Y2))) (or (not ?T2) ?U2) (or (not ?T2) (and ?I2 ?U2 ?V2)) $x425857 (or (not ?I2) $x290207 $x859666 $x852120) (or $x578415 (and ?F2 (not ?H2)) (and ?H2 (not ?F2))) (or $x578415 (and ?B2 ?F2 (not ?G2)) (and ?Y1 ?H2 (not ?D2))) (or (not ?B2) ?C2) (or (not ?B2) (and ?Y1 ?C2 ?D2)) (or (not ?Y1) ?Z1) (or (not ?Y1) (and ?W1 ?Z1 (not ?A2))) (or (not ?Z) ?B1) (or (not ?Z) (and ?A1 ?B1 (not ?C1))) (or (not ?W1) ?X1) (or (not ?W1) (and ?A1 ?X1 ?C1)) (= ?K5 (ite ?X5 0.0 ?N2)))))
(=> $x870589 $x571951)))))))))))))))))))))))))))))))))))))))))))
)
(assert (forall ((?A Real) (?B Real) (?C Real) (?D Real) (?E Real) (?F Real) (?G Real) (?H Real) (?I Real) (?J Real) (?K Real) (?L Real) (?M Bool) (?N Real) (?O Real) (?P Real) (?Q Real) (?R Real) (?S Real) (?T Real) (?U Real) (?V Real) (?W Real) (?X Real) (?Y Real) (?Z Real) (?A1 Real) (?B1 Real) (?C1 Real) (?D1 Real) (?E1 Real) (?F1 Real) (?G1 Real) (?H1 Real) (?I1 Real) (?J1 Real) (?K1 Bool) )(let (($x866520 (|cp-rel-bb.i103.i| ?A ?B ?C ?D ?E ?F ?G ?H ?I ?J ?K ?L ?F1 ?M ?N ?O ?P ?Q ?R ?S ?T ?U ?V ?W ?X)))
(let (($x441497 (= ?K1 true)))
(let (($x343373 (|cp-rel-bb.i103.i.outer46| ?Y ?Z ?A1 ?B1 ?C1 ?D1 ?E1 ?F1 ?G1 ?H1 ?I1 ?J1)))
(let (($x381455 (and $x343373 (>= ?X ?J1) (<= ?X ?J1) (>= ?W ?I1) (<= ?W ?I1) (>= ?V ?H1) (<= ?V ?H1) (>= ?U ?G1) (<= ?U ?G1) (>= ?T ?E1) (<= ?T ?E1) (>= ?S ?D1) (<= ?S ?D1) (>= ?R ?C1) (<= ?R ?C1) (>= ?Q ?B1) (<= ?Q ?B1) (>= ?P ?A1) (<= ?P ?A1) (>= ?O ?Z) (<= ?O ?Z) (>= ?N ?Y) (<= ?N ?Y) $x441497 (= ?M (= ?F1 1.0)))))
(=> $x381455 $x866520))))))
)
(assert (forall ((?A Real) (?B Real) (?C Real) (?D Real) (?E Real) (?F Real) (?G Real) (?H Real) (?I Real) (?J Real) (?K Real) (?L Real) (?M Real) (?N Bool) (?O Real) (?P Real) (?Q Real) (?R Real) (?S Real) (?T Real) (?U Real) (?V Real) (?W Real) (?X Real) (?Y Real) (?Z Bool) (?A1 Bool) (?B1 Bool) (?C1 Bool) (?D1 Bool) (?E1 Bool) (?F1 Bool) (?G1 Bool) (?H1 Bool) (?I1 Bool) (?J1 Bool) (?K1 Bool) (?L1 Bool) (?M1 Bool) (?N1 Bool) (?O1 Bool) (?P1 Bool) (?Q1 Bool) (?R1 Bool) (?S1 Bool) (?T1 Bool) (?U1 Bool) (?V1 Bool) (?W1 Bool) (?X1 Bool) (?Y1 Real) (?Z1 Real) (?A2 Real) (?B2 Real) (?C2 Real) (?D2 Real) (?E2 Real) (?F2 Bool) (?G2 Bool) (?H2 Bool) (?I2 Bool) (?J2 Bool) (?K2 Bool) (?L2 Bool) (?M2 Bool) (?N2 Bool) (?O2 Bool) (?P2 Bool) (?Q2 Bool) (?R2 Bool) (?S2 Real) (?T2 Real) (?U2 Real) (?V2 Real) (?W2 Real) (?X2 Real) (?Y2 Bool) (?Z2 Bool) (?A3 Bool) (?B3 Bool) (?C3 Bool) (?D3 Bool) (?E3 Bool) (?F3 Bool) (?G3 Bool) (?H3 Bool) (?I3 Bool) (?J3 Bool) (?K3 Bool) (?L3 Bool) (?M3 Real) (?N3 Real) (?O3 Real) (?P3 Real) (?Q3 Real) (?R3 Real) (?S3 Bool) (?T3 Bool) (?U3 Bool) (?V3 Bool) (?W3 Bool) (?X3 Bool) (?Y3 Bool) (?Z3 Bool) (?A4 Bool) (?B4 Bool) (?C4 Bool) (?D4 Bool) (?E4 Bool) (?F4 Bool) (?G4 Real) (?H4 Real) (?I4 Real) (?J4 Real) (?K4 Real) (?L4 Real) (?M4 Bool) (?N4 Bool) (?O4 Bool) (?P4 Bool) (?Q4 Bool) (?R4 Bool) (?S4 Bool) (?T4 Real) (?U4 Real) (?V4 Bool) (?W4 Bool) (?X4 Real) (?Y4 Bool) (?Z4 Real) (?A5 Bool) (?B5 Real) (?C5 Bool) (?D5 Real) (?E5 Real) (?F5 Real) (?G5 Real) (?H5 Real) (?I5 Real) (?J5 Real) (?K5 Real) (?L5 Real) (?M5 Real) (?N5 Real) (?O5 Real) (?P5 Real) )(let (($x471127 (|cp-rel-bb.i103.i| ?A ?B ?C ?D ?E ?F ?G ?H ?I ?J ?K ?L ?M ?N ?F5 ?G5 ?H5 ?I5 ?J5 ?K5 ?L5 ?M5 ?N5 ?O5 ?P5)))
(let (($x388960 (not ?S1)))
(let (($x827615 (and ?Z ?G2 ?D1 (<= ?Y1 ?O) (>= ?Y1 ?O) (<= ?A2 ?P) (>= ?A2 ?P) (<= ?B2 ?Q) (>= ?B2 ?Q) (<= ?C2 ?R) (>= ?C2 ?R) (<= ?E2 ?Y) (>= ?E2 ?Y))))
(let (($x549361 (and ?K1 ?F2 ?O1 (<= ?Y1 ?O) (>= ?Y1 ?O) (<= ?A2 ?P) (>= ?A2 ?P) (<= ?B2 ?Q) (>= ?B2 ?Q) (<= ?C2 ?R) (>= ?C2 ?R) (<= ?E2 ?Y) (>= ?E2 ?Y))))
(let (($x239152 (and ?S1 ?X1 (<= ?Y1 ?Z1) (>= ?Y1 ?Z1) (<= ?A2 ?Z1) (>= ?A2 ?Z1) (<= ?B2 2.0) (>= ?B2 2.0) (<= ?C2 ?D2) (>= ?C2 ?D2) (<= ?E2 1.0) (>= ?E2 1.0))))
(let (($x578415 (not ?W1)))
(let (($x837883 (or $x578415 (and ?X1 (not ?F2) (not ?G2)) (and ?F2 (not ?X1) (not ?G2)) (and ?G2 (not ?X1) (not ?F2)))))
(let (($x842358 (>= ?V2 ?S)))
(let (($x851693 (<= ?V2 ?S)))
(let (($x329268 (>= ?S2 ?Y1)))
(let (($x540335 (<= ?S2 ?Y1)))
(let (($x415943 (not ?J2)))
(let (($x525058 (and ?W1 ?A3 $x415943 $x540335 $x329268 (<= ?U2 ?C2) (>= ?U2 ?C2) $x851693 $x842358 (<= ?X2 ?X) (>= ?X2 ?X))))
(let (($x474226 (and ?H2 ?Z2 ?M2 $x540335 $x329268 (<= ?U2 ?C2) (>= ?U2 ?C2) $x851693 $x842358 (<= ?X2 ?X) (>= ?X2 ?X))))
(let (($x909499 (and ?K2 ?Y2 (not ?P2) $x540335 $x329268 (<= ?U2 2.0) (>= ?U2 2.0) $x851693 $x842358 (<= ?X2 1.0) (>= ?X2 1.0))))
(let (($x25803 (and ?N2 ?R2 (<= ?S2 ?T2) (>= ?S2 ?T2) (<= ?U2 2.0) (>= ?U2 2.0) (<= ?V2 ?W2) (>= ?V2 ?W2) (<= ?X2 1.0) (>= ?X2 1.0))))
(let (($x141149 (not ?Q2)))
(let (($x621274 (or $x141149 (and ?R2 (not ?Y2) (not ?Z2) (not ?A3)) (and ?Y2 (not ?R2) (not ?Z2) (not ?A3)) (and ?Z2 (not ?R2) (not ?Y2) (not ?A3)) (and ?A3 (not ?R2) (not ?Y2) (not ?Z2)))))
(let (($x454301 (>= ?P3 ?T)))
(let (($x903390 (<= ?P3 ?T)))
(let (($x453240 (>= ?M3 ?S2)))
(let (($x192329 (<= ?M3 ?S2)))
(let (($x165470 (not ?D3)))
(let (($x485065 (and ?Q2 ?U3 $x165470 $x192329 $x453240 (<= ?O3 ?V2) (>= ?O3 ?V2) $x903390 $x454301 (<= ?R3 ?W) (>= ?R3 ?W))))
(let (($x252486 (and ?B3 ?T3 ?G3 $x192329 $x453240 (<= ?O3 ?V2) (>= ?O3 ?V2) $x903390 $x454301 (<= ?R3 ?W) (>= ?R3 ?W))))
(let (($x912560 (and ?E3 ?S3 (not ?J3) $x192329 $x453240 (<= ?O3 2.0) (>= ?O3 2.0) $x903390 $x454301 (<= ?R3 1.0) (>= ?R3 1.0))))
(let (($x140679 (and ?H3 ?L3 (<= ?M3 ?N3) (>= ?M3 ?N3) (<= ?O3 2.0) (>= ?O3 2.0) (<= ?P3 ?Q3) (>= ?P3 ?Q3) (<= ?R3 1.0) (>= ?R3 1.0))))
(let (($x838267 (not ?K3)))
(let (($x482159 (or $x838267 (and ?L3 (not ?S3) (not ?T3) (not ?U3)) (and ?S3 (not ?L3) (not ?T3) (not ?U3)) (and ?T3 (not ?L3) (not ?S3) (not ?U3)) (and ?U3 (not ?L3) (not ?S3) (not ?T3)))))
(let (($x693679 (>= ?J4 ?U)))
(let (($x573070 (<= ?J4 ?U)))
(let (($x55163 (>= ?G4 ?M3)))
(let (($x854898 (<= ?G4 ?M3)))
(let (($x140816 (not ?X3)))
(let (($x99748 (and ?K3 ?O4 $x140816 $x854898 $x55163 (<= ?I4 ?P3) (>= ?I4 ?P3) $x573070 $x693679 (<= ?L4 ?V) (>= ?L4 ?V))))
(let (($x508002 (and ?V3 ?N4 ?A4 $x854898 $x55163 (<= ?I4 ?P3) (>= ?I4 ?P3) $x573070 $x693679 (<= ?L4 ?V) (>= ?L4 ?V))))
(let (($x532891 (and ?Y3 ?M4 (not ?D4) $x854898 $x55163 (<= ?I4 2.0) (>= ?I4 2.0) $x573070 $x693679 (<= ?L4 1.0) (>= ?L4 1.0))))
(let (($x839828 (and ?B4 ?F4 (<= ?G4 ?H4) (>= ?G4 ?H4) (<= ?I4 2.0) (>= ?I4 2.0) (<= ?J4 ?K4) (>= ?J4 ?K4) (<= ?L4 1.0) (>= ?L4 1.0))))
(let (($x113234 (not ?E4)))
(let (($x294934 (or $x113234 (and ?F4 (not ?M4) (not ?N4) (not ?O4)) (and ?M4 (not ?F4) (not ?N4) (not ?O4)) (and ?N4 (not ?F4) (not ?M4) (not ?O4)) (and ?O4 (not ?F4) (not ?M4) (not ?N4)))))
(let (($x865392 (not ?R4)))
(let (($x311655 (and ?E4 $x865392 (<= ?F5 ?G4) (>= ?F5 ?G4) (<= ?G5 ?A2) (>= ?G5 ?A2) (<= ?H5 ?B2) (>= ?H5 ?B2) (<= ?I5 ?U2) (>= ?I5 ?U2) (<= ?J5 ?O3) (>= ?J5 ?O3) (<= ?K5 ?I4) (>= ?K5 ?I4) (<= ?L5 ?J4) (>= ?L5 ?J4) (<= ?M5 ?L4) (>= ?M5 ?L4) (<= ?N5 ?R3) (>= ?N5 ?R3) (<= ?O5 ?X2) (>= ?O5 ?X2) (<= ?P5 ?E2) (>= ?P5 ?E2))))
(let (($x185038 (and ?P4 ?S4 (<= ?F5 ?G4) (>= ?F5 ?G4) (<= ?G5 ?A2) (>= ?G5 ?A2) (<= ?H5 ?B2) (>= ?H5 ?B2) (<= ?I5 ?U2) (>= ?I5 ?U2) (<= ?J5 ?O3) (>= ?J5 ?O3) (<= ?K5 ?I4) (>= ?K5 ?I4) (<= ?L5 ?J4) (>= ?L5 ?J4) (<= ?M5 ?L4) (>= ?M5 ?L4) (<= ?N5 ?R3) (>= ?N5 ?R3) (<= ?O5 ?X2) (>= ?O5 ?X2) (<= ?P5 ?E2) (>= ?P5 ?E2))))
(let (($x855374 (|cp-rel-bb.i103.i| ?A ?B ?C ?D ?E ?F ?G ?H ?I ?J ?K ?L ?M ?N ?O ?P ?Q ?R ?S ?T ?U ?V ?W ?X ?Y)))
(let (($x78635 (and $x855374 (= ?R4 (= ?J4 0.0)) (= ?K4 (ite ?N 0.0 ?U)) (= ?H4 (+ 1.0 ?M3)) (= ?D4 (= ?V 1.0)) (= ?A4 (= ?D5 0.0)) (= ?X3 (= ?P3 0.0)) (= ?Q3 (ite ?C5 0.0 ?T)) (= ?C5 (= ?V 1.0)) (= ?N3 (+ 1.0 ?S2)) (= ?J3 (= ?W 1.0)) (= ?G3 (= ?B5 0.0)) (= ?D3 (= ?V2 0.0)) (= ?W2 (ite ?A5 0.0 ?S)) (= ?A5 (= ?W 1.0)) (= ?T2 (+ 1.0 ?Y1)) (= ?P2 (= ?X 1.0)) (= ?M2 (= ?Z4 0.0)) (= ?J2 (= ?C2 0.0)) (= ?D2 (ite ?Y4 0.0 ?R)) (= ?Y4 (= ?X 1.0)) (= ?U1 (or ?W4 ?V4)) (= ?W4 (= ?X4 5.0)) (= ?V4 (not (= ?U4 ?O))) (= ?U4 (+ 4.0 ?P)) (= ?R1 (= ?Y 1.0)) (= ?D1 (or ?J1 ?H1)) (= ?J1 (or ?I1 ?G1)) (= ?I1 (or ?F1 ?E1)) (= ?H1 (= ?U 0.0)) (= ?G1 (= ?T 0.0)) (= ?F1 (= ?S 0.0)) (= ?E1 (= ?R 0.0)) (= ?O1 (= ?T4 0.0)) (= ?C1 (= ?Q 0.0)) (or $x185038 $x311655) (or (not ?P4) ?Q4) (or (not ?P4) (and ?E4 ?Q4 ?R4)) $x294934 (or $x113234 $x839828 $x532891 $x508002 $x99748) (or (not ?B4) ?C4) (or (not ?B4) (and ?Y3 ?C4 ?D4)) (or (not ?Y3) ?Z3) (or (not ?Y3) (and ?V3 ?Z3 (not ?A4))) (or (not ?V3) ?W3) (or (not ?V3) (and ?K3 ?W3 ?X3)) $x482159 (or $x838267 $x140679 $x912560 $x252486 $x485065) (or (not ?H3) ?I3) (or (not ?H3) (and ?E3 ?I3 ?J3)) (or (not ?E3) ?F3) (or (not ?E3) (and ?B3 ?F3 (not ?G3))) (or (not ?B3) ?C3) (or (not ?B3) (and ?Q2 ?C3 ?D3)) $x621274 (or $x141149 $x25803 $x909499 $x474226 $x525058) (or (not ?N2) ?O2) (or (not ?N2) (and ?K2 ?O2 ?P2)) (or (not ?K2) ?L2) (or (not ?K2) (and ?H2 ?L2 (not ?M2))) (or (not ?H2) ?I2) (or (not ?H2) (and ?W1 ?I2 ?J2)) $x837883 (or $x578415 $x239152 $x549361 $x827615) (or $x388960 (and ?T1 (not ?V1)) (and ?V1 (not ?T1))) (or $x388960 (and ?P1 ?T1 (not ?U1)) (and ?M1 ?V1 (not ?R1))) (or (not ?P1) ?Q1) (or (not ?P1) (and ?M1 ?Q1 ?R1)) (or (not ?M1) ?N1) (or (not ?M1) (and ?K1 ?N1 (not ?O1))) (or (not ?Z) ?B1) (or (not ?Z) (and ?A1 ?B1 (not ?C1))) (or (not ?K1) ?L1) (or (not ?K1) (and ?A1 ?L1 ?C1)) (= ?S4 (= ?E5 0.0)))))
(=> $x78635 $x471127)))))))))))))))))))))))))))))))))))))))))))))))
)
(assert (forall ((?A Real) (?B Real) (?C Real) (?D Real) (?E Real) (?F Real) (?G Real) (?H Real) (?I Real) (?J Real) (?K Real) (?L Real) (?M Real) (?N Bool) (?O Real) (?P Real) (?Q Real) (?R Real) (?S Real) (?T Real) (?U Real) (?V Real) (?W Real) (?X Real) (?Y Real) (?Z Bool) (?A1 Bool) (?B1 Bool) (?C1 Bool) (?D1 Bool) (?E1 Bool) (?F1 Bool) (?G1 Bool) (?H1 Bool) (?I1 Bool) (?J1 Bool) (?K1 Bool) (?L1 Bool) (?M1 Bool) (?N1 Bool) (?O1 Bool) (?P1 Bool) (?Q1 Bool) (?R1 Bool) (?S1 Bool) (?T1 Bool) (?U1 Bool) (?V1 Bool) (?W1 Bool) (?X1 Bool) (?Y1 Bool) (?Z1 Real) (?A2 Real) (?B2 Real) (?C2 Real) (?D2 Real) (?E2 Real) (?F2 Real) (?G2 Real) (?H2 Real) (?I2 Real) (?J2 Real) )(let (($x853837 (|cp-rel-__UFO__0| ?A ?B ?C ?D ?E ?F ?G ?H ?I ?J ?K ?L ?Z1 ?A2 ?B2 ?C2 ?D2 ?E2 ?F2 ?M ?G2 ?H2 ?I2 ?J2 ?N ?O ?P ?Q ?R ?S ?T ?U ?V ?W ?X ?Y ?N1 ?O1 ?P1 ?Q1)))
(let (($x373333 (|cp-rel-bb.i103.i| ?A ?B ?C ?D ?E ?F ?G ?H ?I ?J ?K ?L ?M ?N ?O ?P ?Q ?R ?S ?T ?U ?V ?W ?X ?Y)))
(let (($x846021 (and $x373333 (= ?Y1 (or ?X1 ?P1)) (= ?X1 (or ?W1 ?O1)) (= ?W1 ?N1) (= ?I1 ?V1) (= ?V1 (or ?U1 ?N1)) (= ?U1 (or ?T1 ?O1)) (= ?T1 (or ?P1 ?Q1)) (= ?F1 (or ?S1 ?Q1)) (= ?S1 (or ?R1 ?P1)) (= ?R1 (or ?O1 ?N1)) (= ?Q1 (= ?U 0.0)) (= ?P1 (= ?T 0.0)) (= ?O1 (= ?S 0.0)) (= ?N1 (= ?R 0.0)) (= ?C1 (= ?Q 0.0)) (not (= ?M1 true)) (= ?J1 true) (or (not ?J1) (and ?K1 (not ?L1)) (and ?L1 (not ?K1))) (or (not ?J1) (and ?G1 ?K1) (and ?D1 ?L1 ?I1)) (or (not ?G1) ?H1) (or (not ?G1) (and ?D1 ?H1 (not ?I1))) (or (not ?D1) ?E1) (or (not ?D1) (and ?Z ?E1 (not ?F1))) (or (not ?Z) ?B1) (or (not ?Z) (and ?A1 ?B1 (not ?C1))) (= ?M1 (or ?Y1 ?Q1)))))
(=> $x846021 $x853837)))))
)
(assert (forall ((?A Real) (?B Real) (?C Real) (?D Real) (?E Real) (?F Real) (?G Real) (?H Real) (?I Real) (?J Real) (?K Real) (?L Real) (?M Real) (?N Bool) (?O Bool) (?P Bool) (?Q Bool) (?R Bool) (?S Real) (?T Real) (?U Real) (?V Real) (?W Real) (?X Real) (?Y Real) (?Z Real) (?A1 Real) (?B1 Real) (?C1 Real) (?D1 Real) (?E1 Real) (?F1 Real) (?G1 Real) (?H1 Real) (?I1 Real) (?J1 Real) (?K1 Real) (?L1 Real) (?M1 Real) (?N1 Real) (?O1 Bool) )(let (($x324955 (|cp-rel-__UFO__0| ?A ?B ?C ?D ?E ?F ?G ?H ?I ?J ?K ?L ?S ?T ?U ?V ?W ?X ?Y ?M ?Z ?A1 ?B1 ?C1 ?N ?D1 ?E1 ?F1 ?G1 ?H1 ?I1 ?J1 ?K1 ?L1 ?M1 ?N1 ?O ?P ?Q ?R)))
(=> (and $x324955 (= ?O1 true)) $x324955)))
)
(assert (forall ((?A Real) (?B Real) (?C Real) (?D Real) (?E Real) (?F Real) (?G Real) (?H Real) (?I Real) (?J Real) (?K Real) (?L Real) (?M Real) (?N Bool) (?O Real) (?P Real) (?Q Real) (?R Real) (?S Real) (?T Real) (?U Real) (?V Real) (?W Real) (?X Real) (?Y Real) (?Z Bool) (?A1 Bool) (?B1 Bool) (?C1 Bool) (?D1 Bool) (?E1 Bool) (?F1 Bool) (?G1 Bool) (?H1 Bool) (?I1 Bool) (?J1 Bool) (?K1 Real) (?L1 Real) (?M1 Bool) (?N1 Bool) (?O1 Real) )(let (($x840588 (|cp-rel-bb.i103.i| ?A ?B ?C ?D ?E ?F ?G ?H ?I ?J ?K ?L ?M ?N ?O ?P ?Q ?R ?S ?T ?U ?V ?W ?X ?Y)))
(let (($x180067 (and $x840588 (= ?N1 (= ?O1 5.0)) (= ?M1 (not (= ?L1 ?O))) (= ?L1 (+ 4.0 ?P)) (= ?I1 (= ?Y 1.0)) (= ?F1 (= ?K1 0.0)) (= ?A1 (= ?Q 0.0)) (= ?J1 true) (= ?G1 true) (or (not ?G1) ?H1) (or (not ?G1) (and ?D1 ?H1 ?I1)) (or (not ?D1) ?E1) (or (not ?D1) (and ?B1 ?E1 (not ?F1))) (or (not ?B1) ?C1) (or (not ?B1) (and ?Z ?C1 ?A1)) (= ?J1 (or ?N1 ?M1)))))
(=> $x180067 |cp-rel-UnifiedReturnBlock|))))
)
(assert (not cp-rel-UnifiedReturnBlock))
(check-sat)
